8034
2072
1283
9764
9741
14969
32422
24325
20544
10997
24061
10183
10208
6996
26502
19129
23259
29012
523
11010
4951
20222
3040
20384
17553
11299
13188
11511
13825
9915
31799
751
8395
5152
16921
13583
3207
2077
12462
32302
1669
7297
27845
10404
11969
6932
24377
19821
19300
11449
15026
11358
310
9254
31395
4608
18848
17586
5808
2103
21388
12979
12498
23531
14138
174
11601
12208
32380
983
21467
24881
22560
24145
11500
19428
337
5613
2420
15726
3503
2051
13249
18651
8914
3310
27105
23228
6270
1693
27889
22059
21759
27348
1347
12291
17282
12019
22572
22241
